150 7385
1 87 76 73 34 7 84 8 89 35 93 124 96 30 63 48 113 10 3 62 149 125 22 104 4 150 115 64 112 136 145 49 147 23 32 38 67 43 12 24 118 53 40 120 42 28 9 6 37 2 29 19 99 114 102 108 70 135 86 50 137 132 141 83 56 90 25 20 51 109 134 138 46 54 92 33 126 52 111 105 16 59 133 122 14 80 72 144 129 27 31 123 74 13 106 91 119 68 128 45 71 44 21 94 88 121 79 78 15 77 131 116 101 39 57 41 117 140 60 66 17 130 148 11 61 36 127 69 139 47 110 81 58 55 65 85 142 18 75 26 146 97 143 100 5 107 95 82 98 103 
